GLPSOL--GLPK LP/MIP Solver 5.0
Parameter(s) specified in the command line:
 --lp ../modeles/2_289.lp --log 2_289.log
Reading problem data from '../modeles/2_289.lp'...
587 rows, 1160 columns, 4056 non-zeros
578 integer variables, all of which are binary
1755 lines were read
GLPK Integer Optimizer 5.0
587 rows, 1160 columns, 4056 non-zeros
578 integer variables, all of which are binary
Preprocessing...
572 constraint coefficient(s) were reduced
587 rows, 1158 columns, 4054 non-zeros
578 integer variables, all of which are binary
Scaling...
 A: min|aij| =  4.789e-05  max|aij| =  4.000e+00  ratio =  8.352e+04
GM: min|aij| =  5.882e-02  max|aij| =  1.700e+01  ratio =  2.890e+02
EQ: min|aij| =  3.460e-03  max|aij| =  1.000e+00  ratio =  2.890e+02
2N: min|aij| =  3.065e-03  max|aij| =  1.774e+00  ratio =  5.787e+02
Constructing initial basis...
Size of triangular part is 587
Solving LP relaxation...
GLPK Simplex Optimizer 5.0
587 rows, 1158 columns, 4054 non-zeros
      0: obj =   4.000000000e+00 inf =   9.500e+00 (5)
     33: obj =   4.999580939e-01 inf =   0.000e+00 (0)
*   132: obj =  -1.414147839e+00 inf =   4.546e-17 (0)
OPTIMAL LP SOLUTION FOUND
Integer optimization begins...
Long-step dual simplex will be used
+   132: mip =     not found yet >=              -inf        (1; 0)
+   300: >>>>>  -1.414147839e+00 >=  -1.414147839e+00 < 0.1% (168; 0)
+   300: mip =  -1.414147839e+00 >=     tree is empty   0.0% (0; 335)
INTEGER OPTIMAL SOLUTION FOUND
Time used:   0.1 secs
Memory used: 1.7 Mb (1810402 bytes)
